myproject/instances/20nodes/rnd41_20.tsp
NAME : rnd41_20.tsp
TYPE : TSP
DIMENSION : 20
EDGE_WEIGHT_TYPE : EUC_2D
NODE_COORD_SECTION
1 353 876
2 655 897
3 751 857
4 123 866
5 109 908
6 589 564
7 110 376
8 298 215
9 522 670
10 994 533
11 166 682
12 364 674
13 625 734
14 683 419
15 625 86
16 279 891
17 539 66
18 756 929
19 337 391
20 471 789
